NAME : B-n45-k5
COMMENT : (Augerat et al, No of trucks: 5, Optimal value: 751)
TYPE : CVRP
DIMENSION : 45
EDGE_WEIGHT_TYPE : EUC_2D 
CAPACITY : 100
NODE_COORD_SECTION 
 1 53 22
 2 34 28
 3 2 5
 4 40 85
 5 88 38
 6 74 20
 7 82 21
 8 0 46
 9 84 31
 10 11 12
 11 42 37
 12 90 44
 13 85 22
 14 9 8
 15 4 51
 16 3 10
 17 90 40
 18 41 33
 19 10 50
 20 96 45
 21 48 90
 22 87 31
 23 79 26
 24 39 32
 25 0 91
 26 89 45
 27 91 46
 28 3 53
 29 44 0
 30 89 41
 31 40 32
 32 42 86
 33 0 13
 34 97 45
 35 1 50
 36 45 94
 37 36 33
 38 4 15
 39 42 88
 40 42 29
 41 92 0
 42 75 26
 43 78 0
 44 77 29
 45 5 47
DEMAND_SECTION 
1 0 
2 1 
3 19 
4 19 
5 22 
6 20 
7 11 
8 2 
9 5 
10 20 
11 22 
12 2 
13 2 
14 11 
15 22 
16 19 
17 3 
18 1 
19 2 
20 16 
21 2 
22 13 
23 7 
24 8 
25 16 
26 14 
27 4 
28 14 
29 7 
30 20 
31 14 
32 7 
33 9 
34 7 
35 5 
36 10 
37 13 
38 25 
39 1 
40 22 
41 9 
42 3 
43 8 
44 10 
45 19 
DEPOT_SECTION 
 1  
 -1  
EOF 
